1197.24 0
0 64 77 78 133 33 80 68 69 70 67 79 63 34 32 134 76 74 73 0
0 66 71 117 131 114 115 119 130 65 19 118 46 0
0 72 47 75 1 48 49 62 50 51 52 54 55 102 53 103 56 105 104 101 100 99 98 97 96 38 39 45 94 93 29 31 59 23 24 22 0
0 113 129 128 127 126 125 111 123 122 110 132 17 0
0 18 116 106 107 108 109 120 121 124 112 81 0
0 91 21 25 26 27 92 16 13 15 88 14 11 12 10 9 8 7 6 5 4 2 42 41 3 44 43 40 95 37 36 35 57 58 61 60 0
0 82 20 83 85 84 86 87 89 90 28 30 0
